results_rootrelaxation/bin012_070_041.srr.sol
solution status: optimal solution found
objective value:                     9.27777777777778
_var748_                           0.0555555555555547 	(obj:0)
_var754_                            0.666666666666667 	(obj:0)
_var760_                                          0.5 	(obj:1)
_var769_                            0.722222222222222 	(obj:0)
_var774_                            0.166666666666667 	(obj:1)
_var782_                                          0.5 	(obj:1)
_var789_                            0.166666666666667 	(obj:3)
_var797_                            0.166666666666668 	(obj:2)
_var799_                            0.222222222222222 	(obj:0)
_var808_                            0.222222222222222 	(obj:1)
_var817_                            0.111111111111111 	(obj:0)
_var818_                            0.277777777777778 	(obj:2)
_var831_                            0.222222222222222 	(obj:1)
_var847_                           0.0555555555555556 	(obj:2)
_var851_                           0.0555555555555563 	(obj:2)
_var854_                            0.166666666666667 	(obj:0)
_var865_                            0.333333333333333 	(obj:0)
_var866_                            0.111111111111112 	(obj:1)
_var872_                            0.611111111111111 	(obj:0)
_var878_                            0.388888888888889 	(obj:1)
_var882_                            0.222222222222222 	(obj:0)
_var883_                            0.277777777777778 	(obj:0)
_var884_                            0.166666666666667 	(obj:2)
_var886_                           0.0555555555555558 	(obj:1)
_var897_                           0.0555555555555554 	(obj:0)
_var898_                            0.277777777777778 	(obj:0)
_var899_                            0.055555555555556 	(obj:3)
_var902_                            0.111111111111111 	(obj:1)
_var906_                           0.0555555555555555 	(obj:1)
_var910_                            0.222222222222222 	(obj:2)
_var911_                           0.0555555555555564 	(obj:2)
_var913_                            0.055555555555556 	(obj:1)
_var915_                            0.444444444444445 	(obj:0)
_var917_                           0.0555555555555551 	(obj:2)
_var919_                             0.11111111111111 	(obj:2)
_var927_                            0.277777777777778 	(obj:2)
_var931_                            0.166666666666666 	(obj:2)
_var932_                            0.277777777777778 	(obj:0)
_var934_                           0.0555555555555561 	(obj:1)
_var935_                            0.277777777777779 	(obj:1)
_var936_                           0.0555555555555557 	(obj:2)
_var938_                            0.166666666666667 	(obj:2)
_var939_                            0.166666666666667 	(obj:2)
_var941_                            0.388888888888889 	(obj:1)
_var942_                             0.11111111111111 	(obj:1)
_var945_                            0.166666666666666 	(obj:3)
_var947_                            0.333333333333334 	(obj:1)
_var948_                           0.0555555555555558 	(obj:0)
_var949_                            0.222222222222221 	(obj:1)
_var952_                            0.111111111111111 	(obj:0)
_var956_                           0.0555555555555561 	(obj:3)
_var960_                            0.166666666666666 	(obj:1)
